Route #1: 1 27 47 12 15 9 38 11 29 2 1 
Route #2: 1 1 32 46 48 43 7 26 31 28 3 21 50 16 22 1 
Route #3: 1 36 35 20 10 17 25 14 24 23 8 1 
Route #4: 1 5 49 34 30 39 33 44 42 19 1 
Route #5: 1 18 4 37 45 40 41 13 6 1 

Cost 795.943
Time 0.4450


 * Another infos *

 Iterations: 51 Time: 0.4450 sec - 0.0074 min - 0.0001 horas
0.0000 h 0.0074 min
Problem dimension: 51
